
Gurobi 11.0.2 (win64) logging started Wed Aug 14 19:25:47 2024

Set parameter LogFile to value "D:\Documenti\Scuola\Laurea magistrale unibs\laurea-unibs-mkfsp\output\2024-08-14T16_44_40.946359\logs\instance05_bucket1.log"
Set parameter TimeLimit to value 500
Set parameter MIPGap to value 0
Gurobi Optimizer version 11.0.2 build v11.0.2rc0 (win64 - Windows 10.0 (19045.2))

CPU model: Intel(R) Core(TM) i5-4670 CPU @ 3.40GHz, instruction set [SSE2|AVX|AVX2]
Thread count: 4 physical cores, 4 logical processors, using up to 4 threads

Optimize a model with 798 rows, 2334 columns and 65088 nonzeros
Model fingerprint: 0x49f8c59e
Variable types: 0 continuous, 2334 integer (2307 binary)
Coefficient statistics:
  Matrix range     [1e+00, 1e+03]
  Objective range  [6e+02, 9e+03]
  Bounds range     [1e+00, 1e+00]
  RHS range        [1e+00, 3e+04]
Found heuristic solution: objective -0.0000000
Presolve time: 0.10s
Presolved: 798 rows, 2334 columns, 65088 nonzeros
Variable types: 0 continuous, 2334 integer (2307 binary)

Root relaxation: objective 1.599770e+05, 387 iterations, 0.01 seconds (0.01 work units)

    Nodes    |    Current Node    |     Objective Bounds      |     Work
 Expl Unexpl |  Obj  Depth IntInf | Incumbent    BestBd   Gap | It/Node Time

H    0     0                    159977.00000 159977.000  0.00%     -    0s
     0     0 159977.000    0  165 159977.000 159977.000  0.00%     -    0s

Explored 1 nodes (387 simplex iterations) in 0.13 seconds (0.11 work units)
Thread count was 4 (of 4 available processors)

Solution count 2: 159977 -0 

Optimal solution found (tolerance 0.00e+00)
Best objective 1.599770000000e+05, best bound 1.599770000000e+05, gap 0.0000%
